100
32
14
15
13
25
32
1
28
2
17
18
29
18
16
18
21
12
27
28
3
23
10
27
32
21
15
19
4
14
1
17
1
25
1
5
20
7
29
2
24
3
20
7
28
4
18
28
1
27
11
23
24
26
25
10
31
22
23
21
22
6
6
9
24
30
9
31
1
13
27
19
3
16
25
26
27
27
3
12
3
1
5
24
1
4
13
27
17
13
13
8
31
25
13
8
2
21
20
19
15
19